solution status: optimal solution found
objective value:                     203181.720949549
d11(0,0)                                            1 	(obj:0)
d11(1,1)                                            1 	(obj:0)
d11(2,3)                                            1 	(obj:0)
d11(4,15)                                           1 	(obj:0)
d11(4,17)                                           1 	(obj:0)
d11(4,19)                                           1 	(obj:0)
d11(4,21)                                           1 	(obj:0)
d11(4,23)                           0.999999999999917 	(obj:0)
d11(4,27)                                           1 	(obj:0)
d11(4,29)                                           1 	(obj:0)
d11(5,31)                                           1 	(obj:0)
d11(5,32)                                           1 	(obj:0)
d11(5,33)                                           1 	(obj:0)
d11(5,34)                                           1 	(obj:0)
d11(5,35)                                           1 	(obj:0)
d11(5,36)                                           1 	(obj:0)
d11(5,37)                                           1 	(obj:0)
d11(5,38)                                           1 	(obj:0)
d11(5,39)                                           1 	(obj:0)
d11(5,40)                                           1 	(obj:0)
d11(5,41)                                           1 	(obj:0)
d11(5,42)                                           1 	(obj:0)
d11(5,43)                                           1 	(obj:0)
d11(5,44)                                           1 	(obj:0)
d11(5,45)                                           1 	(obj:0)
d11(5,46)                                           1 	(obj:0)
d11(5,47)                                           1 	(obj:0)
d11(5,48)                                           1 	(obj:0)
d11(5,49)                                           1 	(obj:0)
d11(5,50)                                           1 	(obj:0)
d11(5,51)                                           1 	(obj:0)
d11(5,52)                                           1 	(obj:0)
d11(5,53)                                           1 	(obj:0)
d11(5,54)                                           1 	(obj:0)
d11(5,55)                                           1 	(obj:0)
d11(5,56)                                           1 	(obj:0)
d11(5,57)                                           1 	(obj:0)
d11(5,58)                                           1 	(obj:0)
d11(5,59)                                           1 	(obj:0)
d11(5,60)                                           1 	(obj:0)
d11(5,61)                                           1 	(obj:0)
d11(5,62)                                           1 	(obj:0)
d12(2,4)                                            1 	(obj:0)
d12(2,6)                                            1 	(obj:0)
d12(3,8)                                            1 	(obj:0)
d12(3,10)                                           1 	(obj:0)
d12(3,12)                                           1 	(obj:0)
d12(3,14)                                           1 	(obj:0)
d12(4,16)                                           1 	(obj:0)
d12(4,18)                                           1 	(obj:0)
d12(4,20)                                           1 	(obj:0)
d12(4,22)                                           1 	(obj:0)
d12(4,24)                                           1 	(obj:0)
d12(4,26)                                           1 	(obj:0)
d12(4,28)                                           1 	(obj:0)
d12(4,30)                                           1 	(obj:0)
d21(5,31)                                           1 	(obj:0)
d21(5,32)                                           1 	(obj:0)
d21(5,33)                                           1 	(obj:0)
d21(5,34)                                           1 	(obj:0)
d21(5,35)                                           1 	(obj:0)
d21(5,36)                                           1 	(obj:0)
d21(5,37)                                           1 	(obj:0)
d21(5,39)                                           1 	(obj:0)
d21(5,40)                                           1 	(obj:0)
d21(5,41)                                           1 	(obj:0)
d21(5,43)                                           1 	(obj:0)
d21(5,47)                                           1 	(obj:0)
d21(5,49)                                           1 	(obj:0)
d21(5,51)                                           1 	(obj:0)
d21(5,55)                                           1 	(obj:0)
STE(1,1)                             11382.7501011112 	(obj:0)
STE(0,0)                                        14175 	(obj:0)
STE(1,2)                                        13041 	(obj:0)
STE(2,3)                             10248.7501011112 	(obj:0)
STE(2,4)                             11564.9641869877 	(obj:0)
STE(2,5)                                        11907 	(obj:0)
STE(2,6)                             13223.2140858765 	(obj:0)
STE(3,7)                              9114.7501011112 	(obj:0)
STE(3,8)                             10430.9641869877 	(obj:0)
STE(3,9)                             10430.9641869877 	(obj:0)
STE(3,10)                            11747.1782728642 	(obj:0)
STE(3,11)                                       10773 	(obj:0)
STE(3,12)                            12089.2140858765 	(obj:0)
STE(3,13)                            12089.2140858765 	(obj:0)
STE(3,14)                             13405.428171753 	(obj:0)
STE(4,15)                             7980.7501011112 	(obj:0)
STE(4,16)                             9296.9641869877 	(obj:0)
STE(4,17)                            9296.96418698752 	(obj:0)
STE(4,18)                            10613.1782728642 	(obj:0)
STE(4,19)                            9296.96418698766 	(obj:0)
STE(4,20)                            10613.1782728642 	(obj:0)
STE(4,21)                            10613.1782728642 	(obj:0)
STE(4,22)                            11929.3923587407 	(obj:0)
STE(4,23)                             9639.0000000917 	(obj:0)
STE(4,24)                            10955.2140858765 	(obj:0)
STE(4,25)                            10955.2140858765 	(obj:0)
STE(4,26)                             12271.428171753 	(obj:0)
STE(4,27)                            10955.2140858765 	(obj:0)
STE(4,28)                             12271.428171753 	(obj:0)
STE(4,29)                             12271.428171753 	(obj:0)
STE(4,30)                            13587.6422576295 	(obj:0)
STE(5,31)                            936.000052130679 	(obj:0)
STE(5,32)                             2594.2499510195 	(obj:0)
STE(5,33)                            2252.21413800719 	(obj:0)
STE(5,34)                              3910.464036896 	(obj:0)
STE(5,35)                            2252.21413800693 	(obj:0)
STE(5,36)                             3910.4640368958 	(obj:0)
STE(5,37)                            3568.42822388369 	(obj:0)
STE(5,38)                            5226.67812277251 	(obj:0)
STE(5,39)                            2252.21413800714 	(obj:0)
STE(5,40)                            3910.46403689596 	(obj:0)
STE(5,41)                            3568.42822388365 	(obj:0)
STE(5,42)                            5226.67812277247 	(obj:0)
STE(5,43)                            3568.42822388365 	(obj:0)
STE(5,44)                            5226.67812277247 	(obj:0)
STE(5,45)                            4884.64230976016 	(obj:0)
STE(5,46)                            6542.89220864898 	(obj:0)
STE(5,47)                            2594.24995111118 	(obj:0)
STE(5,48)                                  4252.49985 	(obj:0)
STE(5,49)                            3910.46403689599 	(obj:0)
STE(5,50)                            5568.71393578481 	(obj:0)
STE(5,51)                            3910.46403689599 	(obj:0)
STE(5,52)                            5568.71393578481 	(obj:0)
STE(5,53)                             5226.6781227725 	(obj:0)
STE(5,54)                            6884.92802166131 	(obj:0)
STE(5,55)                            3910.46403689599 	(obj:0)
STE(5,56)                            5568.71393578481 	(obj:0)
STE(5,57)                             5226.6781227725 	(obj:0)
STE(5,58)                            6884.92802166131 	(obj:0)
STE(5,59)                             5226.6781227725 	(obj:0)
STE(5,60)                            6884.92802166131 	(obj:0)
STE(5,61)                            6542.89220864901 	(obj:0)
STE(5,62)                            8201.14210753783 	(obj:0)
y1(5,38)                             3827.25013508253 	(obj:0)
y1(5,39)                             5319.67504408247 	(obj:0)
y1(5,40)                             3827.25013508253 	(obj:0)
y1(5,41)                             5319.67504408247 	(obj:0)
y1(5,42)                             3827.25013508253 	(obj:0)
y1(5,43)                             5319.67504408247 	(obj:0)
y1(5,44)                             3827.25013508253 	(obj:0)
y1(5,45)                             5319.67504408247 	(obj:0)
y1(5,46)                             3827.25013508253 	(obj:0)
y1(5,47)                             5319.67504408247 	(obj:0)
y1(5,48)                             3827.25013508253 	(obj:0)
y1(5,49)                             5319.67504408247 	(obj:0)
y1(5,50)                             3827.25013508253 	(obj:0)
y1(5,51)                             5319.67504408247 	(obj:0)
y1(5,52)                             3827.25013508253 	(obj:0)
y1(5,53)                             5319.67504408247 	(obj:0)
y1(5,54)                             3827.25013508253 	(obj:0)
y1(5,55)                             5319.67504408247 	(obj:0)
y1(5,56)                             3827.25013508253 	(obj:0)
y1(5,57)                             5319.67504408247 	(obj:0)
y1(5,58)                             3827.25013508253 	(obj:0)
y1(5,59)                             5319.67504408247 	(obj:0)
y1(5,60)                             3827.25013508253 	(obj:0)
y1(5,61)                             5319.67504408247 	(obj:0)
y1(5,62)                             3827.25013508253 	(obj:0)
AVE(1)                                   3216.9117036 	(obj:0)
WB(2)                                692.744255724489 	(obj:0)
AVE(2)                                   3366.1541945 	(obj:0)
WB(3)                                 841.98674662449 	(obj:0)
AVE(3)                                   3515.3966854 	(obj:0)
WB(4)                                841.984126682749 	(obj:0)
AVE(4)                               3515.39406545826 	(obj:0)
AVE(5)                               3167.15385943327 	(obj:0)
WG(1)                                    3216.9117036 	(obj:10)
WG(2)                                2673.40993877551 	(obj:10)
WG(3)                                2673.40993877551 	(obj:10)
WG(4)                                2673.40993877551 	(obj:10)
WG(5)                                3167.15385943327 	(obj:10)
BG(1)                                979.380795379592 	(obj:10)
BG(5)                                 4934.4959202427 	(obj:10)
y1(1,1)                              1492.42490899996 	(obj:0)
y1(4,23)                         -8.25303141027689e-008 	(obj:0)
y1(5,31)                             5319.67504408247 	(obj:0)
y1(5,32)                             3827.25013508253 	(obj:0)
y1(5,33)                             5319.67504408247 	(obj:0)
y1(5,34)                             3827.25013508253 	(obj:0)
y1(5,35)                             5319.67504408247 	(obj:0)
y1(5,36)                             3827.25013508253 	(obj:0)
y1(5,37)                             5319.67504408247 	(obj:0)
y2(2,4)                              1385.48851144895 	(obj:0)
y2(2,6)                              1385.48851144895 	(obj:0)
y2(3,8)                              1385.48851144895 	(obj:0)
y2(3,10)                             1385.48851144895 	(obj:0)
y2(3,12)                             1385.48851144895 	(obj:0)
y2(3,14)                             1385.48851144895 	(obj:0)
y2(4,16)                             1385.48851144895 	(obj:0)
y2(4,18)                             1385.48851144895 	(obj:0)
y2(4,20)                             1385.48851144895 	(obj:0)
y2(4,22)                             1385.48851144896 	(obj:0)
y2(4,24)                             1385.48851144895 	(obj:0)
y2(4,26)                             1385.48851144895 	(obj:0)
y2(4,28)                             1385.48851144895 	(obj:0)
y2(4,30)                             1385.48851144896 	(obj:0)
